49	58
27	43
37	31
57	29
63	23
53	12
32	12
36	26
21	24
17	34
12	24
24	58
27	69
15	77
62	77
49	73
67	5
56	39
37	47
37	56
57	68
47	16
44	17
46	13
49	11
49	42
53	43
61	52
57	48
56	37
55	54
15	47
14	37
11	31
16	22
4	18
28	18
26	52
26	35
31	67
15	19
22	22
18	24
26	27
25	24
22	27
25	21
19	21
20	26
18	18
